p cnf 733 2170
-11 -6 0
-11 -7 0
11 6 7 0
-12 -1 0
-12 -2 0
12 1 2 0
-13 -4 0
-13 5 0
13 4 -5 0
-14 -3 0
-14 13 0
14 3 -13 0
-15 12 0
-15 14 0
15 -12 -14 0
-16 4 0
-16 -5 0
16 -4 5 0
-17 -1 0
-17 10 0
17 1 -10 0
-18 2 0
-18 -17 0
18 -2 17 0
-19 1 0
-19 -10 0
19 -1 10 0
-20 -2 0
-20 -19 0
20 2 19 0
-21 -9 0
-21 -20 0
21 9 20 0
-22 -18 0
-22 -21 0
22 18 21 0
-23 16 0
-23 -22 0
23 -16 22 0
-24 3 0
-24 23 0
24 -3 -23 0
-25 -15 0
-25 -24 0
25 15 24 0
-26 -8 0
-26 -25 0
26 8 25 0
-27 11 0
-27 26 0
27 -11 -26 0
-28 -2 0
-28 -4 0
28 2 4 0
-29 -3 0
-29 28 0
29 3 -28 0
-30 5 0
-30 -29 0
30 -5 29 0
-31 -9 0
-31 -10 0
31 9 10 0
-32 -2 0
-32 -31 0
32 2 31 0
-33 1 0
-33 -6 0
33 -1 6 0
-34 4 0
-34 -7 0
34 -4 7 0
-35 3 0
-35 34 0
35 -3 -34 0
-36 33 0
-36 35 0
36 -33 -35 0
-37 -8 0
-37 -36 0
37 8 36 0
-38 -32 0
-38 -37 0
38 32 37 0
-39 -8 0
-39 -29 0
39 8 29 0
-40 1 0
-40 -39 0
40 -1 39 0
-41 3 0
-41 -4 0
41 -3 4 0
-42 8 0
-42 -41 0
42 -8 41 0
-43 -6 0
-43 -10 0
43 6 10 0
-44 -4 0
-44 -43 0
44 4 43 0
-45 -1 0
-45 9 0
45 1 -9 0
-46 7 0
-46 10 0
46 -7 -10 0
-47 4 0
-47 -46 0
47 -4 46 0
-48 45 0
-48 -47 0
48 -45 47 0
-49 -44 0
-49 -48 0
49 44 48 0
-50 -3 0
-50 -49 0
50 3 49 0
-51 9 0
-51 10 0
51 -9 -10 0
-52 35 0
-52 -51 0
52 -35 51 0
-53 -6 0
-53 52 0
53 6 -52 0
-54 6 0
-54 10 0
54 -6 -10 0
-55 9 0
-55 54 0
55 -9 -54 0
-56 -7 0
-56 -55 0
56 7 55 0
-57 -4 0
-57 -56 0
57 4 56 0
-58 -53 0
-58 -57 0
58 53 57 0
-59 -50 0
-59 58 0
59 50 -58 0
-60 2 0
-60 -59 0
60 -2 59 0
-61 -7 0
-61 -54 0
61 7 54 0
-62 45 0
-62 -61 0
62 -45 61 0
-63 -46 0
-63 -62 0
63 46 62 0
-64 4 0
-64 -63 0
64 -4 63 0
-65 5 0
-65 -11 0
65 -5 11 0
-66 -4 0
-66 -65 0
66 4 65 0
-67 -64 0
-67 -66 0
67 64 66 0
-68 -3 0
-68 -67 0
68 3 67 0
-69 -9 0
-69 -54 0
69 9 54 0
-70 44 0
-70 -69 0
70 -44 69 0
-71 3 0
-71 70 0
71 -3 -70 0
-72 -68 0
-72 -71 0
72 68 71 0
-73 -2 0
-73 -72 0
73 2 72 0
-74 -6 0
-74 -41 0
74 6 41 0
-75 7 0
-75 -74 0
75 -7 74 0
-76 -73 0
-76 -75 0
76 73 75 0
-77 -60 0
-77 76 0
77 60 -76 0
-78 -42 0
-78 77 0
78 42 -77 0
-79 -40 0
-79 78 0
79 40 -78 0
-80 -38 0
-80 79 0
80 38 -79 0
-81 -30 0
-81 80 0
81 30 -80 0
-82 -4 0
-82 10 0
82 4 -10 0
-83 2 0
-83 82 0
83 -2 -82 0
-84 -2 0
-84 -3 0
84 2 3 0
-85 6 0
-85 -10 0
85 -6 10 0
-86 84 0
-86 85 0
86 -84 -85 0
-87 -83 0
-87 -86 0
87 83 86 0
-88 -1 0
-88 -87 0
88 1 87 0
-89 -4 0
-89 -6 0
89 4 6 0
-90 -2 0
-90 6 0
90 2 -6 0
-91 -89 0
-91 -90 0
91 89 90 0
-92 -2 0
-92 -10 0
92 2 10 0
-93 -82 0
-93 -92 0
93 82 92 0
-94 -91 0
-94 93 0
94 91 -93 0
-95 -3 0
-95 94 0
95 3 -94 0
-96 2 0
-96 10 0
96 -2 -10 0
-97 -92 0
-97 -96 0
97 92 96 0
-98 -2 0
-98 -6 0
98 2 6 0
-99 97 0
-99 -98 0
99 -97 98 0
-100 41 0
-100 -99 0
100 -41 99 0
-101 -95 0
-101 -100 0
101 95 100 0
-102 -88 0
-102 101 0
102 88 -101 0
-103 -9 0
-103 -102 0
103 9 102 0
-104 -1 0
-104 -4 0
104 1 4 0
-105 -91 0
-105 -104 0
105 91 104 0
-106 -3 0
-106 105 0
106 3 -105 0
-107 28 0
-107 33 0
107 -28 -33 0
-108 -106 0
-108 -107 0
108 106 107 0
-109 9 0
-109 -108 0
109 -9 108 0
-110 2 0
-110 3 0
110 -2 -3 0
-111 4 0
-111 6 0
111 -4 -6 0
-112 -6 0
-112 -45 0
112 6 45 0
-113 -111 0
-113 -112 0
113 111 112 0
-114 110 0
-114 113 0
114 -110 -113 0
-115 -109 0
-115 -114 0
115 109 114 0
-116 -10 0
-116 -115 0
116 10 115 0
-117 -3 0
-117 9 0
117 3 -9 0
-118 4 0
-118 -117 0
118 -4 117 0
-119 3 0
-119 -6 0
119 -3 6 0
-120 -111 0
-120 -119 0
120 111 119 0
-121 -118 0
-121 -120 0
121 118 120 0
-122 2 0
-122 121 0
122 -2 -121 0
-123 -1 0
-123 6 0
123 1 -6 0
-124 -2 0
-124 4 0
124 2 -4 0
-125 -123 0
-125 124 0
125 123 -124 0
-126 117 0
-126 125 0
126 -117 -125 0
-127 -122 0
-127 -126 0
127 122 126 0
-128 10 0
-128 -127 0
128 -10 127 0
-129 -116 0
-129 -128 0
129 116 128 0
-130 -103 0
-130 129 0
130 103 -129 0
-131 -7 0
-131 -130 0
131 7 130 0
-132 4 0
-132 -6 0
132 -4 6 0
-133 -2 0
-133 10 0
133 2 -10 0
-134 7 0
-134 -133 0
134 -7 133 0
-135 3 0
-135 -32 0
135 -3 32 0
-136 -134 0
-136 -135 0
136 134 135 0
-137 1 0
-137 -136 0
137 -1 136 0
-138 2 0
-138 -9 0
138 -2 9 0
-139 -7 0
-139 -138 0
139 7 138 0
-140 3 0
-140 -139 0
140 -3 139 0
-141 2 0
-141 -10 0
141 -2 10 0
-142 9 0
-142 -141 0
142 -9 141 0
-143 134 0
-143 -142 0
143 -134 142 0
-144 -140 0
-144 -143 0
144 140 143 0
-145 -137 0
-145 144 0
145 137 -144 0
-146 132 0
-146 -145 0
146 -132 145 0
-147 -131 0
-147 -146 0
147 131 146 0
-148 -8 0
-148 -147 0
148 8 147 0
-149 1 0
-149 117 0
149 -1 -117 0
-150 -3 0
-150 -9 0
150 3 9 0
-151 3 0
-151 9 0
151 -3 -9 0
-152 -150 0
-152 -151 0
152 150 151 0
-153 -1 0
-153 -152 0
153 1 152 0
-154 -149 0
-154 -153 0
154 149 153 0
-155 -10 0
-155 -154 0
155 10 154 0
-156 3 0
-156 10 0
156 -3 -10 0
-157 -1 0
-157 -9 0
157 1 9 0
-158 156 0
-158 157 0
158 -156 -157 0
-159 -155 0
-159 -158 0
159 155 158 0
-160 -2 0
-160 -159 0
160 2 159 0
-161 -1 0
-161 150 0
161 1 -150 0
-162 96 0
-162 161 0
162 -96 -161 0
-163 -160 0
-163 -162 0
163 160 162 0
-164 89 0
-164 -163 0
164 -89 163 0
-165 -7 0
-165 164 0
165 7 -164 0
-166 -148 0
-166 -165 0
166 148 165 0
-167 -5 0
-167 -166 0
167 5 166 0
-168 -1 0
-168 84 0
168 1 -84 0
-169 5 0
-169 -8 0
169 -5 8 0
-170 89 0
-170 169 0
170 -89 -169 0
-171 168 0
-171 170 0
171 -168 -170 0
-172 -167 0
-172 -171 0
172 167 171 0
-173 -4 0
-173 9 0
173 4 -9 0
-174 -46 0
-174 -173 0
174 46 173 0
-175 1 0
-175 -174 0
175 -1 174 0
-176 7 0
-176 -9 0
176 -7 9 0
-177 34 0
-177 45 0
177 -34 -45 0
-178 -176 0
-178 -177 0
178 176 177 0
-179 10 0
-179 -178 0
179 -10 178 0
-180 7 0
-180 9 0
180 -7 -9 0
-181 -10 0
-181 180 0
181 10 -180 0
-182 -179 0
-182 -181 0
182 179 181 0
-183 -175 0
-183 182 0
183 175 -182 0
-184 -3 0
-184 -183 0
184 3 183 0
-185 -4 0
-185 51 0
185 4 -51 0
-186 1 0
-186 9 0
186 -1 -9 0
-187 4 0
-187 -51 0
187 -4 51 0
-188 -186 0
-188 -187 0
188 186 187 0
-189 -7 0
-189 -188 0
189 7 188 0
-190 -185 0
-190 -189 0
190 185 189 0
-191 3 0
-191 -190 0
191 -3 190 0
-192 -7 0
-192 31 0
192 7 -31 0
-193 -4 0
-193 192 0
193 4 -192 0
-194 -191 0
-194 -193 0
194 191 193 0
-195 -184 0
-195 194 0
195 184 -194 0
-196 2 0
-196 -195 0
196 -2 195 0
-197 -1 0
-197 -10 0
197 1 10 0
-198 -9 0
-198 10 0
198 9 -10 0
-199 -197 0
-199 -198 0
199 197 198 0
-200 -7 0
-200 -199 0
200 7 199 0
-201 -3 0
-201 200 0
201 3 -200 0
-202 -31 0
-202 -51 0
202 31 51 0
-203 7 0
-203 -202 0
203 -7 202 0
-204 -1 0
-204 203 0
204 1 -203 0
-205 -201 0
-205 -204 0
205 201 204 0
-206 4 0
-206 -205 0
206 -4 205 0
-207 1 0
-207 180 0
207 -1 -180 0
-208 -161 0
-208 -207 0
208 161 207 0
-209 -10 0
-209 -208 0
209 10 208 0
-210 3 0
-210 -31 0
210 -3 31 0
-211 -4 0
-211 -9 0
211 4 9 0
-212 -7 0
-212 -211 0
212 7 211 0
-213 210 0
-213 -212 0
213 -210 212 0
-214 -209 0
-214 -213 0
214 209 213 0
-215 -206 0
-215 214 0
215 206 -214 0
-216 -2 0
-216 -215 0
216 2 215 0
-217 -3 0
-217 4 0
217 3 -4 0
-218 -10 0
-218 176 0
218 10 -176 0
-219 217 0
-219 218 0
219 -217 -218 0
-220 -216 0
-220 -219 0
220 216 219 0
-221 -196 0
-221 220 0
221 196 -220 0
-222 -6 0
-222 -221 0
222 6 221 0
-223 3 0
-223 -10 0
223 -3 10 0
-224 -3 0
-224 10 0
224 3 -10 0
-225 -223 0
-225 -224 0
225 223 224 0
-226 1 0
-226 -225 0
226 -1 225 0
-227 -1 0
-227 85 0
227 1 -85 0
-228 -226 0
-228 -227 0
228 226 227 0
-229 9 0
-229 -228 0
229 -9 228 0
-230 6 0
-230 -9 0
230 -6 9 0
-231 156 0
-231 230 0
231 -156 -230 0
-232 -229 0
-232 -231 0
232 229 231 0
-233 -4 0
-233 -232 0
233 4 232 0
-234 -111 0
-234 -223 0
234 111 223 0
-235 -1 0
-235 -234 0
235 1 234 0
-236 -3 0
-236 6 0
236 3 -6 0
-237 4 0
-237 236 0
237 -4 -236 0
-238 -235 0
-238 -237 0
238 235 237 0
-239 -9 0
-239 -238 0
239 9 238 0
-240 85 0
-240 217 0
240 -85 -217 0
-241 -239 0
-241 -240 0
241 239 240 0
-242 -233 0
-242 241 0
242 233 -241 0
-243 2 0
-243 -242 0
243 -2 242 0
-244 3 0
-244 4 0
244 -3 -4 0
-245 1 0
-245 4 0
245 -1 -4 0
-246 -3 0
-246 -245 0
246 3 245 0
-247 -202 0
-247 -246 0
247 202 246 0
-248 -244 0
-248 -247 0
248 244 247 0
-249 6 0
-249 -248 0
249 -6 248 0
-250 3 0
-250 31 0
250 -3 -31 0
-251 245 0
-251 250 0
251 -245 -250 0
-252 -249 0
-252 -251 0
252 249 251 0
-253 -2 0
-253 -252 0
253 2 252 0
-254 55 0
-254 244 0
254 -55 -244 0
-255 -253 0
-255 -254 0
255 253 254 0
-256 -243 0
-256 255 0
256 243 -255 0
-257 -7 0
-257 -256 0
257 7 256 0
-258 -222 0
-258 -257 0
258 222 257 0
-259 -8 0
-259 -258 0
259 8 258 0
-260 -2 0
-260 -7 0
260 2 7 0
-261 9 0
-261 -10 0
261 -9 10 0
-262 -198 0
-262 -261 0
262 198 261 0
-263 3 0
-263 -262 0
263 -3 262 0
-264 -1 0
-264 263 0
264 1 -263 0
-265 1 0
-265 -3 0
265 -1 3 0
-266 8 0
-266 9 0
266 -8 -9 0
-267 -10 0
-267 266 0
267 10 -266 0
-268 265 0
-268 267 0
268 -265 -267 0
-269 -264 0
-269 -268 0
269 264 268 0
-270 260 0
-270 -269 0
270 -260 269 0
-271 89 0
-271 270 0
271 -89 -270 0
-272 -259 0
-272 -271 0
272 259 271 0
-273 -5 0
-273 -272 0
273 5 272 0
-274 -3 0
-274 -6 0
274 3 6 0
-275 104 0
-275 274 0
275 -104 -274 0
-276 169 0
-276 260 0
276 -169 -260 0
-277 275 0
-277 276 0
277 -275 -276 0
-278 -273 0
-278 -277 0
278 273 277 0
-279 3 0
-279 -98 0
279 -3 98 0
-280 -10 0
-280 -279 0
280 10 279 0
-281 -7 0
-281 280 0
281 7 -280 0
-282 6 0
-282 96 0
282 -6 -96 0
-283 -281 0
-283 -282 0
283 281 282 0
-284 1 0
-284 -283 0
284 -1 283 0
-285 -1 0
-285 -43 0
285 1 43 0
-286 3 0
-286 285 0
286 -3 -285 0
-287 -284 0
-287 -286 0
287 284 286 0
-288 9 0
-288 -287 0
288 -9 287 0
-289 -9 0
-289 92 0
289 9 -92 0
-290 3 0
-290 17 0
290 -3 -17 0
-291 -289 0
-291 -290 0
291 289 290 0
-292 6 0
-292 -291 0
292 -6 291 0
-293 -288 0
-293 -292 0
293 288 292 0
-294 203 0
-294 225 0
294 -203 -225 0
-295 293 0
-295 -294 0
295 -293 294 0
-296 -8 0
-296 -295 0
296 8 295 0
-297 -3 0
-297 141 0
297 3 -141 0
-298 -2 0
-298 3 0
298 2 -3 0
-299 8 0
-299 -10 0
299 -8 10 0
-300 9 0
-300 -299 0
300 -9 299 0
-301 298 0
-301 -300 0
301 -298 300 0
-302 -297 0
-302 -301 0
302 297 301 0
-303 -1 0
-303 -302 0
303 1 302 0
-304 96 0
-304 186 0
304 -96 -186 0
-305 -31 0
-305 -304 0
305 31 304 0
-306 8 0
-306 -305 0
306 -8 305 0
-307 -3 0
-307 306 0
307 3 -306 0
-308 -303 0
-308 -307 0
308 303 307 0
-309 11 0
-309 -308 0
309 -11 308 0
-310 -296 0
-310 -309 0
310 296 309 0
-311 -4 0
-311 -310 0
311 4 310 0
-312 -96 0
-312 -289 0
312 96 289 0
-313 1 0
-313 -312 0
313 -1 312 0
-314 3 0
-314 141 0
314 -3 -141 0
-315 -313 0
-315 -314 0
315 313 314 0
-316 -1 0
-316 -7 0
316 1 7 0
-317 -2 0
-317 -9 0
317 2 9 0
-318 97 0
-318 -317 0
318 -97 317 0
-319 316 0
-319 318 0
319 -316 -318 0
-320 315 0
-320 -319 0
320 -315 319 0
-321 -6 0
-321 -320 0
321 6 320 0
-322 1 0
-322 2 0
322 -1 -2 0
-323 -9 0
-323 322 0
323 9 -322 0
-324 -138 0
-324 -207 0
324 138 207 0
-325 -3 0
-325 -324 0
325 3 324 0
-326 -323 0
-326 -325 0
326 323 325 0
-327 10 0
-327 -326 0
327 -10 326 0
-328 -33 0
-328 -157 0
328 33 157 0
-329 141 0
-329 328 0
329 -141 -328 0
-330 -327 0
-330 -329 0
330 327 329 0
-331 -321 0
-331 330 0
331 321 -330 0
-332 4 0
-332 -331 0
332 -4 331 0
-333 1 0
-333 10 0
333 -1 -10 0
-334 -197 0
-334 -333 0
334 197 333 0
-335 236 0
-335 -334 0
335 -236 334 0
-336 -7 0
-336 -119 0
336 7 119 0
-337 17 0
-337 -336 0
337 -17 336 0
-338 -335 0
-338 -337 0
338 335 337 0
-339 -9 0
-339 -338 0
339 9 338 0
-340 9 0
-340 333 0
340 -9 -333 0
-341 -210 0
-341 -340 0
341 210 340 0
-342 7 0
-342 -341 0
342 -7 341 0
-343 -339 0
-343 -342 0
343 339 342 0
-344 2 0
-344 -343 0
344 -2 343 0
-345 -9 0
-345 -316 0
345 9 316 0
-346 -33 0
-346 -345 0
346 33 345 0
-347 -10 0
-347 -346 0
347 10 346 0
-348 -3 0
-348 347 0
348 3 -347 0
-349 17 0
-349 151 0
349 -17 -151 0
-350 -348 0
-350 -349 0
350 348 349 0
-351 -2 0
-351 -350 0
351 2 350 0
-352 -344 0
-352 -351 0
352 344 351 0
-353 -332 0
-353 352 0
353 332 -352 0
-354 -8 0
-354 -353 0
354 8 353 0
-355 -311 0
-355 -354 0
355 311 354 0
-356 -5 0
-356 -355 0
356 5 355 0
-357 6 0
-357 7 0
357 -6 -7 0
-358 -3 0
-358 -4 0
358 3 4 0
-359 -1 0
-359 358 0
359 1 -358 0
-360 -2 0
-360 5 0
360 2 -5 0
-361 359 0
-361 360 0
361 -359 -360 0
-362 -357 0
-362 -361 0
362 357 361 0
-363 -8 0
-363 -362 0
363 8 362 0
-364 -356 0
-364 -363 0
364 356 363 0
-365 16 0
-365 -168 0
365 -16 168 0
-366 -15 0
-366 -365 0
366 15 365 0
-367 -8 0
-367 -366 0
367 8 366 0
-368 357 0
-368 367 0
368 -357 -367 0
-369 3 0
-369 -12 0
369 -3 12 0
-370 -5 0
-370 369 0
370 5 -369 0
-371 -13 0
-371 -16 0
371 13 16 0
-372 168 0
-372 -371 0
372 -168 371 0
-373 -370 0
-373 -372 0
373 370 372 0
-374 -8 0
-374 -373 0
374 8 373 0
-375 357 0
-375 374 0
375 -357 -374 0
-376 -7 0
-376 10 0
376 7 -10 0
-377 4 0
-377 -376 0
377 -4 376 0
-378 3 0
-378 7 0
378 -3 -7 0
-379 -377 0
-379 -378 0
379 377 378 0
-380 -5 0
-380 -379 0
380 5 379 0
-381 11 0
-381 51 0
381 -11 -51 0
-382 -357 0
-382 -381 0
382 357 381 0
-383 14 0
-383 -382 0
383 -14 382 0
-384 -380 0
-384 -383 0
384 380 383 0
-385 -2 0
-385 -384 0
385 2 384 0
-386 -9 0
-386 43 0
386 9 -43 0
-387 6 0
-387 9 0
387 -6 -9 0
-388 376 0
-388 387 0
388 -376 -387 0
-389 -386 0
-389 -388 0
389 386 388 0
-390 3 0
-390 -389 0
390 -3 389 0
-391 -6 0
-391 7 0
391 6 -7 0
-392 -9 0
-392 391 0
392 9 -391 0
-393 -7 0
-393 9 0
393 7 -9 0
-394 6 0
-394 -393 0
394 -6 393 0
-395 4 0
-395 -394 0
395 -4 394 0
-396 -392 0
-396 -395 0
396 392 395 0
-397 -390 0
-397 396 0
397 390 -396 0
-398 2 0
-398 -397 0
398 -2 397 0
-399 3 0
-399 391 0
399 -3 -391 0
-400 -398 0
-400 -399 0
400 398 399 0
-401 -5 0
-401 -400 0
401 5 400 0
-402 -385 0
-402 -401 0
402 385 401 0
-403 -1 0
-403 -402 0
403 1 402 0
-404 -6 0
-404 9 0
404 6 -9 0
-405 -211 0
-405 -404 0
405 211 404 0
-406 3 0
-406 -405 0
406 -3 405 0
-407 -3 0
-407 387 0
407 3 -387 0
-408 -406 0
-408 -407 0
408 406 407 0
-409 -10 0
-409 -408 0
409 10 408 0
-410 -9 0
-410 54 0
410 9 -54 0
-411 -4 0
-411 -410 0
411 4 410 0
-412 -3 0
-412 -411 0
412 3 411 0
-413 4 0
-413 -9 0
413 -4 9 0
-414 -7 0
-414 -413 0
414 7 413 0
-415 -132 0
-415 -414 0
415 132 414 0
-416 -412 0
-416 -415 0
416 412 415 0
-417 -409 0
-417 416 0
417 409 -416 0
-418 2 0
-418 -417 0
418 -2 417 0
-419 -4 0
-419 391 0
419 4 -391 0
-420 6 0
-420 150 0
420 -6 -150 0
-421 260 0
-421 420 0
421 -260 -420 0
-422 -419 0
-422 -421 0
422 419 421 0
-423 -10 0
-423 -422 0
423 10 422 0
-424 -418 0
-424 -423 0
424 418 423 0
-425 1 0
-425 -424 0
425 -1 424 0
-426 -358 0
-426 391 0
426 358 -391 0
-427 -35 0
-427 -426 0
427 35 426 0
-428 10 0
-428 -427 0
428 -10 427 0
-429 -10 0
-429 391 0
429 10 -391 0
-430 -34 0
-430 -429 0
430 34 429 0
-431 -9 0
-431 -430 0
431 9 430 0
-432 -428 0
-432 -431 0
432 428 431 0
-433 -2 0
-433 -432 0
433 2 432 0
-434 -7 0
-434 -9 0
434 7 9 0
-435 -43 0
-435 -434 0
435 43 434 0
-436 -3 0
-436 -435 0
436 3 435 0
-437 -96 0
-437 -387 0
437 96 387 0
-438 61 0
-438 -437 0
438 -61 437 0
-439 -436 0
-439 -438 0
439 436 438 0
-440 4 0
-440 -439 0
440 -4 439 0
-441 2 0
-441 261 0
441 -2 -261 0
-442 391 0
-442 441 0
442 -391 -441 0
-443 -440 0
-443 -442 0
443 440 442 0
-444 -433 0
-444 443 0
444 433 -443 0
-445 -425 0
-445 444 0
445 425 -444 0
-446 -5 0
-446 -445 0
446 5 445 0
-447 -403 0
-447 -446 0
447 403 446 0
-448 -8 0
-448 -447 0
448 8 447 0
-449 2 0
-449 -4 0
449 -2 4 0
-450 -198 0
-450 -449 0
450 198 449 0
-451 -82 0
-451 -450 0
451 82 450 0
-452 -7 0
-452 451 0
452 7 -451 0
-453 6 0
-453 -118 0
453 -6 118 0
-454 4 0
-454 -119 0
454 -4 119 0
-455 9 0
-455 -454 0
455 -9 454 0
-456 -453 0
-456 -455 0
456 453 455 0
-457 2 0
-457 -456 0
457 -2 456 0
-458 28 0
-458 392 0
458 -28 -392 0
-459 -457 0
-459 -458 0
459 457 458 0
-460 -10 0
-460 -459 0
460 10 459 0
-461 4 0
-461 9 0
461 -4 -9 0
-462 -3 0
-462 -461 0
462 3 461 0
-463 -2 0
-463 -462 0
463 2 462 0
-464 3 0
-464 -393 0
464 -3 393 0
-465 -463 0
-465 -464 0
465 463 464 0
-466 6 0
-466 -465 0
466 -6 465 0
-467 2 0
-467 9 0
467 -2 -9 0
-468 7 0
-468 -467 0
468 -7 467 0
-469 -10 0
-469 -468 0
469 10 468 0
-470 -3 0
-470 -469 0
470 3 469 0
-471 -2 0
-471 198 0
471 2 -198 0
-472 -470 0
-472 -471 0
472 470 471 0
-473 4 0
-473 -472 0
473 -4 472 0
-474 83 0
-474 176 0
474 -83 -176 0
-475 -473 0
-475 -474 0
475 473 474 0
-476 -466 0
-476 475 0
476 466 -475 0
-477 -460 0
-477 476 0
477 460 -476 0
-478 -452 0
-478 477 0
478 452 -477 0
-479 -5 0
-479 -478 0
479 5 478 0
-480 -261 0
-480 -434 0
480 261 434 0
-481 -6 0
-481 480 0
481 6 -480 0
-482 -2 0
-482 13 0
482 2 -13 0
-483 -481 0
-483 482 0
483 481 -482 0
-484 -3 0
-484 483 0
484 3 -483 0
-485 -479 0
-485 -484 0
485 479 484 0
-486 -1 0
-486 -485 0
486 1 485 0
-487 -31 0
-487 -340 0
487 31 340 0
-488 6 0
-488 -487 0
488 -6 487 0
-489 -6 0
-489 156 0
489 6 -156 0
-490 -488 0
-490 -489 0
490 488 489 0
-491 2 0
-491 -490 0
491 -2 490 0
-492 -92 0
-492 262 0
492 92 -262 0
-493 3 0
-493 -492 0
493 -3 492 0
-494 -491 0
-494 -493 0
494 491 493 0
-495 -4 0
-495 -494 0
495 4 494 0
-496 6 0
-496 -124 0
496 -6 124 0
-497 -3 0
-497 31 0
497 3 -31 0
-498 -496 0
-498 497 0
498 496 -497 0
-499 10 0
-499 -358 0
499 -10 358 0
-500 -2 0
-500 9 0
500 2 -9 0
-501 499 0
-501 500 0
501 -499 -500 0
-502 -498 0
-502 -501 0
502 498 501 0
-503 1 0
-503 -502 0
503 -1 502 0
-504 -495 0
-504 -503 0
504 495 503 0
-505 -7 0
-505 -504 0
505 7 504 0
-506 3 0
-506 96 0
506 -3 -96 0
-507 -500 0
-507 -506 0
507 500 506 0
-508 7 0
-508 -507 0
508 -7 507 0
-509 9 0
-509 -223 0
509 -9 223 0
-510 -250 0
-510 -509 0
510 250 509 0
-511 -508 0
-511 510 0
511 508 -510 0
-512 4 0
-512 -511 0
512 -4 511 0
-513 -134 0
-513 -141 0
513 134 141 0
-514 9 0
-514 -513 0
514 -9 513 0
-515 -97 0
-515 211 0
515 97 -211 0
-516 -514 0
-516 -515 0
516 514 515 0
-517 -3 0
-517 -516 0
517 3 516 0
-518 -512 0
-518 -517 0
518 512 517 0
-519 33 0
-519 -518 0
519 -33 518 0
-520 -505 0
-520 -519 0
520 505 519 0
-521 -5 0
-521 -520 0
521 5 520 0
-522 -486 0
-522 -521 0
522 486 521 0
-523 -8 0
-523 -522 0
523 8 522 0
-524 266 0
-524 333 0
524 -266 -333 0
-525 -197 0
-525 -524 0
525 197 524 0
-526 2 0
-526 -525 0
526 -2 525 0
-527 19 0
-527 317 0
527 -19 -317 0
-528 -526 0
-528 -527 0
528 526 527 0
-529 -5 0
-529 -528 0
529 5 528 0
-530 358 0
-530 529 0
530 -358 -529 0
-531 11 0
-531 530 0
531 -11 -530 0
-532 -523 0
-532 -531 0
532 523 531 0
-533 -18 0
-533 -133 0
533 18 133 0
-534 89 0
-534 533 0
534 -89 -533 0
-535 -8 0
-535 -141 0
535 8 141 0
-536 -20 0
-536 535 0
536 20 -535 0
-537 -534 0
-537 -536 0
537 534 536 0
-538 -3 0
-538 -537 0
538 3 537 0
-539 -1 0
-539 -274 0
539 1 274 0
-540 -110 0
-540 -539 0
540 110 539 0
-541 -10 0
-541 -540 0
541 10 540 0
-542 -245 0
-542 -499 0
542 245 499 0
-543 -2 0
-543 -542 0
543 2 542 0
-544 -449 0
-544 -543 0
544 449 543 0
-545 -541 0
-545 544 0
545 541 -544 0
-546 -8 0
-546 -545 0
546 8 545 0
-547 -538 0
-547 -546 0
547 538 546 0
-548 -9 0
-548 -547 0
548 9 547 0
-549 -6 0
-549 266 0
549 6 -266 0
-550 -8 0
-550 10 0
550 8 -10 0
-551 -549 0
-551 -550 0
551 549 550 0
-552 2 0
-552 -551 0
552 -2 551 0
-553 2 0
-553 -8 0
553 -2 8 0
-554 43 0
-554 -553 0
554 -43 553 0
-555 -552 0
-555 -554 0
555 552 554 0
-556 265 0
-556 -555 0
556 -265 555 0
-557 12 0
-557 223 0
557 -12 -223 0
-558 549 0
-558 557 0
558 -549 -557 0
-559 -556 0
-559 -558 0
559 556 558 0
-560 -4 0
-560 -559 0
560 4 559 0
-561 -548 0
-561 -560 0
561 548 560 0
-562 -7 0
-562 -561 0
562 7 561 0
-563 -1 0
-563 -3 0
563 1 3 0
-564 133 0
-564 563 0
564 -133 -563 0
-565 -6 0
-565 -564 0
565 6 564 0
-566 7 0
-566 -565 0
566 -7 565 0
-567 2 0
-567 -334 0
567 -2 334 0
-568 3 0
-568 567 0
568 -3 -567 0
-569 6 0
-569 568 0
569 -6 -568 0
-570 -566 0
-570 -569 0
570 566 569 0
-571 9 0
-571 -570 0
571 -9 570 0
-572 -2 0
-572 -17 0
572 2 17 0
-573 -9 0
-573 -572 0
573 9 572 0
-574 19 0
-574 298 0
574 -19 -298 0
-575 -573 0
-575 -574 0
575 573 574 0
-576 -6 0
-576 -575 0
576 6 575 0
-577 -571 0
-577 -576 0
577 571 576 0
-578 4 0
-578 -577 0
578 -4 577 0
-579 -3 0
-579 -19 0
579 3 19 0
-580 7 0
-580 -579 0
580 -7 579 0
-581 358 0
-581 567 0
581 -358 -567 0
-582 -580 0
-582 -581 0
582 580 581 0
-583 6 0
-583 -582 0
583 -6 582 0
-584 -156 0
-584 -297 0
584 156 297 0
-585 104 0
-585 -584 0
585 -104 584 0
-586 7 0
-586 585 0
586 -7 -585 0
-587 -583 0
-587 -586 0
587 583 586 0
-588 9 0
-588 -587 0
588 -9 587 0
-589 41 0
-589 133 0
589 -41 -133 0
-590 -138 0
-590 -589 0
590 138 589 0
-591 -1 0
-591 -590 0
591 1 590 0
-592 -3 0
-592 7 0
592 3 -7 0
-593 4 0
-593 -592 0
593 -4 592 0
-594 92 0
-594 -593 0
594 -92 593 0
-595 -156 0
-595 -594 0
595 156 594 0
-596 -9 0
-596 -595 0
596 9 595 0
-597 -591 0
-597 -596 0
597 591 596 0
-598 -6 0
-598 -597 0
598 6 597 0
-599 289 0
-599 359 0
599 -289 -359 0
-600 -598 0
-600 -599 0
600 598 599 0
-601 -588 0
-601 600 0
601 588 -600 0
-602 -578 0
-602 601 0
602 578 -601 0
-603 -8 0
-603 -602 0
603 8 602 0
-604 -562 0
-604 -603 0
604 562 603 0
-605 -5 0
-605 -604 0
605 5 604 0
-606 5 0
-606 9 0
606 -5 -9 0
-607 7 0
-607 606 0
607 -7 -606 0
-608 -192 0
-608 -607 0
608 192 607 0
-609 6 0
-609 -608 0
609 -6 608 0
-610 7 0
-610 -10 0
610 -7 10 0
-611 5 0
-611 10 0
611 -5 -10 0
-612 -610 0
-612 -611 0
612 610 611 0
-613 -357 0
-613 -612 0
613 357 612 0
-614 -9 0
-614 613 0
614 9 -613 0
-615 -609 0
-615 -614 0
615 609 614 0
-616 -8 0
-616 -615 0
616 8 615 0
-617 29 0
-617 616 0
617 -29 -616 0
-618 -1 0
-618 617 0
618 1 -617 0
-619 -605 0
-619 -618 0
619 605 618 0
-620 156 0
-620 186 0
620 -156 -186 0
-621 150 0
-621 197 0
621 -150 -197 0
-622 -620 0
-622 -621 0
622 620 621 0
-623 6 0
-623 -622 0
623 -6 622 0
-624 -46 0
-624 -404 0
624 46 404 0
-625 -1 0
-625 -624 0
625 1 624 0
-626 9 0
-626 46 0
626 -9 -46 0
-627 -386 0
-627 -626 0
627 386 626 0
-628 -625 0
-628 627 0
628 625 -627 0
-629 3 0
-629 -628 0
629 -3 628 0
-630 -623 0
-630 -629 0
630 623 629 0
-631 -5 0
-631 -630 0
631 5 630 0
-632 -230 0
-632 -606 0
632 230 606 0
-633 -7 0
-633 -632 0
633 7 632 0
-634 -611 0
-634 -633 0
634 611 633 0
-635 -376 0
-635 -634 0
635 376 634 0
-636 563 0
-636 635 0
636 -563 -635 0
-637 -631 0
-637 -636 0
637 631 636 0
-638 -2 0
-638 -637 0
638 2 637 0
-639 -180 0
-639 -624 0
639 180 624 0
-640 1 0
-640 639 0
640 -1 -639 0
-641 123 0
-641 198 0
641 -123 -198 0
-642 -640 0
-642 -641 0
642 640 641 0
-643 -3 0
-643 -642 0
643 3 642 0
-644 -1 0
-644 7 0
644 1 -7 0
-645 -3 0
-645 -644 0
645 3 644 0
-646 404 0
-646 -645 0
646 -404 645 0
-647 -434 0
-647 -646 0
647 434 646 0
-648 -10 0
-648 -647 0
648 10 647 0
-649 -643 0
-649 -648 0
649 643 648 0
-650 2 0
-650 -649 0
650 -2 649 0
-651 223 0
-651 393 0
651 -223 -393 0
-652 -650 0
-652 -651 0
652 650 651 0
-653 -5 0
-653 -652 0
653 5 652 0
-654 -638 0
-654 -653 0
654 638 653 0
-655 -4 0
-655 -654 0
655 4 654 0
-656 1 0
-656 405 0
656 -1 -405 0
-657 -420 0
-657 -656 0
657 420 656 0
-658 -2 0
-658 -657 0
658 2 657 0
-659 -1 0
-659 -462 0
659 1 462 0
-660 -33 0
-660 -123 0
660 33 123 0
-661 -149 0
-661 660 0
661 149 -660 0
-662 2 0
-662 -661 0
662 -2 661 0
-663 -659 0
-663 -662 0
663 659 662 0
-664 -658 0
-664 663 0
664 658 -663 0
-665 -7 0
-665 -664 0
665 7 664 0
-666 -2 0
-666 7 0
666 2 -7 0
-667 3 0
-667 -666 0
667 -3 666 0
-668 -317 0
-668 -667 0
668 317 667 0
-669 4 0
-669 668 0
669 -4 -668 0
-670 -260 0
-670 -322 0
670 260 322 0
-671 -45 0
-671 670 0
671 45 -670 0
-672 -3 0
-672 671 0
672 3 -671 0
-673 -669 0
-673 -672 0
673 669 672 0
-674 -6 0
-674 -673 0
674 6 673 0
-675 -665 0
-675 -674 0
675 665 674 0
-676 -10 0
-676 -675 0
676 10 675 0
-677 2 0
-677 6 0
677 -2 -6 0
-678 84 0
-678 413 0
678 -84 -413 0
-679 -677 0
-679 -678 0
679 677 678 0
-680 1 0
-680 -679 0
680 -1 679 0
-681 6 0
-681 -358 0
681 -6 358 0
-682 4 0
-682 110 0
682 -4 -110 0
-683 -681 0
-683 -682 0
683 681 682 0
-684 -680 0
-684 683 0
684 680 -683 0
-685 7 0
-685 -684 0
685 -7 684 0
-686 230 0
-686 682 0
686 -230 -682 0
-687 -685 0
-687 -686 0
687 685 686 0
-688 10 0
-688 -687 0
688 -10 687 0
-689 -676 0
-689 -688 0
689 676 688 0
-690 -5 0
-690 -689 0
690 5 689 0
-691 -655 0
-691 -690 0
691 655 690 0
-692 -8 0
-692 -691 0
692 8 691 0
-693 -322 0
-693 579 0
693 322 -579 0
-694 -369 0
-694 -693 0
694 369 693 0
-695 -9 0
-695 694 0
695 9 -694 0
-696 117 0
-696 141 0
696 -117 -141 0
-697 -695 0
-697 -696 0
697 695 696 0
-698 8 0
-698 -697 0
698 -8 697 0
-699 -557 0
-699 -698 0
699 557 698 0
-700 -5 0
-700 -699 0
700 5 699 0
-701 -7 0
-701 700 0
701 7 -700 0
-702 89 0
-702 701 0
702 -89 -701 0
-703 -692 0
-703 -702 0
703 692 702 0
-704 -619 0
-704 -703 0
704 619 703 0
-705 619 0
-705 703 0
705 -619 -703 0
-706 -704 0
-706 -705 0
706 704 705 0
-707 -532 0
-707 706 0
707 532 -706 0
-708 532 0
-708 -706 0
708 -532 706 0
-709 -707 0
-709 -708 0
709 707 708 0
-710 448 0
-710 709 0
710 -448 -709 0
-711 -448 0
-711 -709 0
711 448 709 0
-712 -710 0
-712 -711 0
712 710 711 0
-713 375 0
-713 712 0
713 -375 -712 0
-714 -375 0
-714 -712 0
714 375 712 0
-715 -713 0
-715 -714 0
715 713 714 0
-716 368 0
-716 715 0
716 -368 -715 0
-717 -368 0
-717 -715 0
717 368 715 0
-718 -716 0
-718 -717 0
718 716 717 0
-719 364 0
-719 718 0
719 -364 -718 0
-720 -364 0
-720 -718 0
720 364 718 0
-721 -719 0
-721 -720 0
721 719 720 0
-722 278 0
-722 721 0
722 -278 -721 0
-723 -278 0
-723 -721 0
723 278 721 0
-724 -722 0
-724 -723 0
724 722 723 0
-725 172 0
-725 724 0
725 -172 -724 0
-726 -172 0
-726 -724 0
726 172 724 0
-727 -725 0
-727 -726 0
727 725 726 0
-728 81 0
-728 727 0
728 -81 -727 0
-729 -81 0
-729 -727 0
729 81 727 0
-730 -728 0
-730 -729 0
730 728 729 0
-731 27 0
-731 730 0
731 -27 -730 0
-732 -27 0
-732 -730 0
732 27 730 0
-733 -731 0
-733 -732 0
733 731 732 0
733 0
